param set_len = 32;
param target_sum = 8435710829;
param values := [1] 112875204 [2] 930165523 [3] 488925560 [4] 215020912 [5] 1002088618 [6] 134067032 [7] 809150037 [8] 790886212 [9] 411403301 [10] 61361017 [11] 821182127 [12] 1062951344 [13] 643508029 [14] 882843812 [15] 488979127 [16] 649407281 [17] 751173193 [18] 740854970 [19] 958899762 [20] 89924051 [21] 428879705 [22] 613921975 [23] 1039796265 [24] 452746707 [25] 511556467 [26] 115485070 [27] 727009824 [28] 478673872 [29] 285154032 [30] 711627856 [31] 347545768 [32] 422266570 ;
